c File: data_files/evolved_graphs/g0262.col
c
c Auto generated graph
c
p edge 100 1474
e 1 3
e 1 10
e 1 11
e 1 16
e 1 17
e 1 18
e 1 19
e 1 20
e 1 22
e 1 25
e 1 27
e 1 28
e 1 30
e 1 34
e 1 35
e 1 37
e 1 38
e 1 40
e 1 51
e 1 55
e 1 56
e 1 59
e 1 60
e 1 62
e 1 63
e 1 66
e 1 69
e 1 70
e 1 72
e 1 74
e 1 75
e 1 76
e 1 78
e 1 80
e 1 81
e 1 90
e 1 91
e 1 92
e 1 94
e 1 95
e 1 96
e 1 99
e 1 100
e 2 3
e 2 4
e 2 10
e 2 11
e 2 16
e 2 17
e 2 18
e 2 19
e 2 20
e 2 21
e 2 22
e 2 25
e 2 26
e 2 27
e 2 28
e 2 29
e 2 31
e 2 33
e 2 36
e 2 46
e 2 49
e 2 51
e 2 54
e 2 55
e 2 56
e 2 57
e 2 58
e 2 59
e 2 60
e 2 61
e 2 63
e 2 65
e 2 66
e 2 67
e 2 69
e 2 70
e 2 74
e 2 75
e 2 76
e 2 77
e 2 78
e 2 79
e 2 80
e 2 81
e 2 82
e 2 87
e 2 91
e 2 93
e 2 94
e 2 95
e 2 96
e 2 98
e 2 99
e 2 100
e 3 5
e 3 13
e 3 14
e 3 18
e 3 21
e 3 22
e 3 25
e 3 26
e 3 27
e 3 28
e 3 29
e 3 30
e 3 31
e 3 34
e 3 36
e 3 40
e 3 44
e 3 46
e 3 47
e 3 49
e 3 50
e 3 52
e 3 53
e 3 54
e 3 57
e 3 58
e 3 59
e 3 60
e 3 63
e 3 65
e 3 66
e 3 70
e 3 72
e 3 76
e 3 77
e 3 78
e 3 80
e 3 82
e 3 87
e 3 91
e 3 92
e 3 93
e 3 94
e 3 96
e 3 98
e 3 100
e 4 11
e 4 12
e 4 13
e 4 17
e 4 18
e 4 21
e 4 22
e 4 25
e 4 26
e 4 27
e 4 28
e 4 46
e 4 49
e 4 52
e 4 53
e 4 54
e 4 55
e 4 56
e 4 57
e 4 61
e 4 63
e 4 66
e 4 68
e 4 71
e 4 73
e 4 75
e 4 76
e 4 78
e 4 93
e 4 94
e 4 96
e 4 99
e 4 100
e 5 7
e 5 9
e 5 11
e 5 12
e 5 13
e 5 14
e 5 15
e 5 17
e 5 18
e 5 19
e 5 20
e 5 25
e 5 26
e 5 27
e 5 28
e 5 56
e 5 57
e 5 59
e 5 60
e 5 63
e 5 64
e 5 65
e 5 66
e 5 67
e 5 69
e 5 73
e 5 74
e 5 75
e 5 79
e 5 95
e 5 96
e 5 99
e 5 100
e 6 14
e 6 20
e 6 21
e 6 26
e 6 27
e 6 28
e 6 49
e 6 51
e 6 52
e 6 53
e 6 55
e 6 59
e 6 60
e 6 61
e 6 62
e 6 63
e 6 65
e 6 66
e 6 69
e 6 70
e 6 71
e 6 74
e 6 75
e 6 77
e 6 78
e 6 80
e 6 81
e 6 82
e 6 95
e 6 96
e 6 99
e 6 100
e 7 20
e 7 22
e 7 23
e 7 25
e 7 26
e 7 27
e 7 28
e 7 49
e 7 51
e 7 55
e 7 56
e 7 57
e 7 60
e 7 61
e 7 62
e 7 64
e 7 68
e 7 69
e 7 71
e 7 72
e 7 73
e 7 80
e 7 81
e 7 95
e 7 96
e 7 97
e 7 100
e 8 9
e 8 20
e 8 23
e 8 25
e 8 26
e 8 27
e 8 28
e 8 51
e 8 54
e 8 55
e 8 59
e 8 60
e 8 61
e 8 63
e 8 64
e 8 66
e 8 67
e 8 68
e 8 70
e 8 72
e 8 74
e 8 76
e 8 77
e 8 78
e 8 79
e 8 80
e 8 82
e 8 93
e 8 94
e 8 95
e 8 97
e 8 98
e 8 99
e 8 100
e 9 20
e 9 25
e 9 26
e 9 27
e 9 28
e 9 50
e 9 54
e 9 56
e 9 63
e 9 64
e 9 66
e 9 69
e 9 70
e 9 71
e 9 73
e 9 74
e 9 77
e 9 78
e 9 79
e 9 80
e 9 81
e 9 82
e 9 93
e 9 97
e 9 98
e 10 20
e 10 26
e 10 27
e 10 28
e 10 48
e 10 49
e 10 50
e 10 54
e 10 55
e 10 56
e 10 58
e 10 59
e 10 61
e 10 62
e 10 63
e 10 66
e 10 67
e 10 69
e 10 70
e 10 72
e 10 74
e 10 75
e 10 92
e 10 97
e 10 98
e 11 25
e 11 26
e 11 27
e 11 28
e 11 50
e 11 51
e 11 52
e 11 53
e 11 55
e 11 56
e 11 58
e 11 59
e 11 60
e 11 62
e 11 65
e 11 66
e 11 67
e 11 69
e 11 70
e 11 72
e 11 73
e 11 74
e 11 75
e 11 76
e 11 77
e 11 78
e 11 79
e 11 81
e 11 82
e 11 96
e 11 97
e 11 98
e 12 14
e 12 15
e 12 19
e 12 26
e 12 27
e 12 28
e 12 42
e 12 49
e 12 50
e 12 51
e 12 52
e 12 53
e 12 57
e 12 60
e 12 61
e 12 62
e 12 63
e 12 64
e 12 65
e 12 67
e 12 69
e 12 71
e 12 74
e 12 77
e 12 78
e 12 79
e 12 80
e 12 81
e 12 82
e 13 14
e 13 19
e 13 26
e 13 27
e 13 28
e 13 32
e 13 52
e 13 53
e 13 58
e 13 59
e 13 61
e 13 63
e 13 64
e 13 66
e 13 68
e 13 70
e 13 72
e 13 73
e 13 74
e 13 76
e 13 79
e 13 93
e 14 23
e 14 26
e 14 27
e 14 28
e 14 45
e 14 51
e 14 52
e 14 54
e 14 56
e 14 58
e 14 59
e 14 60
e 14 62
e 14 63
e 14 64
e 14 65
e 14 66
e 14 70
e 14 71
e 14 72
e 14 75
e 14 76
e 14 78
e 14 79
e 14 81
e 14 82
e 14 89
e 14 91
e 14 93
e 14 94
e 14 99
e 15 22
e 15 23
e 15 24
e 15 25
e 15 27
e 15 28
e 15 49
e 15 50
e 15 58
e 15 59
e 15 60
e 15 61
e 15 62
e 15 63
e 15 64
e 15 65
e 15 67
e 15 68
e 15 69
e 15 73
e 15 76
e 15 77
e 15 78
e 15 79
e 15 80
e 15 81
e 15 86
e 15 91
e 15 92
e 15 93
e 15 94
e 15 96
e 15 99
e 16 22
e 16 23
e 16 24
e 16 25
e 16 26
e 16 27
e 16 28
e 16 49
e 16 50
e 16 51
e 16 52
e 16 53
e 16 54
e 16 55
e 16 56
e 16 57
e 16 58
e 16 59
e 16 60
e 16 61
e 16 62
e 16 63
e 16 64
e 16 65
e 16 66
e 16 67
e 16 68
e 16 69
e 16 70
e 16 71
e 16 72
e 16 73
e 16 74
e 16 75
e 16 76
e 16 77
e 16 78
e 16 79
e 16 80
e 16 81
e 16 82
e 16 83
e 16 92
e 16 93
e 16 94
e 17 18
e 17 22
e 17 23
e 17 24
e 17 25
e 17 26
e 17 27
e 17 28
e 17 49
e 17 50
e 17 51
e 17 52
e 17 53
e 17 54
e 17 55
e 17 56
e 17 57
e 17 58
e 17 59
e 17 60
e 17 61
e 17 62
e 17 63
e 17 64
e 17 66
e 17 67
e 17 68
e 17 69
e 17 70
e 17 71
e 17 72
e 17 73
e 17 74
e 17 75
e 17 76
e 17 77
e 17 78
e 17 79
e 17 80
e 17 81
e 17 82
e 17 100
e 18 22
e 18 23
e 18 24
e 18 25
e 18 26
e 18 27
e 18 28
e 18 38
e 18 40
e 18 49
e 18 50
e 18 51
e 18 52
e 18 53
e 18 54
e 18 55
e 18 56
e 18 57
e 18 58
e 18 59
e 18 60
e 18 61
e 18 62
e 18 63
e 18 64
e 18 65
e 18 66
e 18 67
e 18 68
e 18 69
e 18 70
e 18 71
e 18 72
e 18 73
e 18 74
e 18 75
e 18 76
e 18 77
e 18 78
e 18 79
e 18 80
e 18 81
e 18 82
e 18 85
e 18 86
e 18 100
e 19 22
e 19 23
e 19 24
e 19 26
e 19 27
e 19 28
e 19 49
e 19 50
e 19 51
e 19 52
e 19 53
e 19 54
e 19 55
e 19 56
e 19 57
e 19 58
e 19 59
e 19 60
e 19 61
e 19 62
e 19 63
e 19 65
e 19 66
e 19 67
e 19 68
e 19 69
e 19 70
e 19 71
e 19 72
e 19 73
e 19 74
e 19 75
e 19 76
e 19 77
e 19 78
e 19 79
e 19 80
e 19 82
e 19 100
e 20 22
e 20 24
e 20 25
e 20 26
e 20 27
e 20 28
e 20 49
e 20 50
e 20 51
e 20 52
e 20 53
e 20 54
e 20 55
e 20 56
e 20 57
e 20 58
e 20 59
e 20 60
e 20 61
e 20 62
e 20 63
e 20 64
e 20 65
e 20 66
e 20 67
e 20 68
e 20 69
e 20 70
e 20 71
e 20 72
e 20 73
e 20 74
e 20 75
e 20 76
e 20 77
e 20 78
e 20 79
e 20 80
e 20 81
e 20 82
e 20 83
e 20 100
e 21 22
e 21 23
e 21 24
e 21 25
e 21 26
e 21 27
e 21 28
e 21 49
e 21 51
e 21 52
e 21 53
e 21 54
e 21 55
e 21 56
e 21 57
e 21 58
e 21 59
e 21 60
e 21 61
e 21 62
e 21 63
e 21 64
e 21 65
e 21 66
e 21 67
e 21 68
e 21 69
e 21 70
e 21 71
e 21 72
e 21 73
e 21 74
e 21 75
e 21 76
e 21 77
e 21 78
e 21 79
e 21 80
e 21 81
e 21 82
e 21 83
e 21 86
e 21 89
e 21 90
e 22 25
e 22 26
e 22 27
e 22 28
e 22 49
e 22 51
e 22 52
e 22 53
e 22 54
e 22 55
e 22 56
e 22 57
e 22 58
e 22 59
e 22 60
e 22 61
e 22 62
e 22 63
e 22 64
e 22 65
e 22 66
e 22 67
e 22 68
e 22 69
e 22 70
e 22 71
e 22 72
e 22 73
e 22 74
e 22 75
e 22 76
e 22 77
e 22 78
e 22 79
e 22 80
e 22 81
e 22 82
e 22 83
e 22 90
e 22 100
e 23 25
e 23 26
e 23 27
e 23 28
e 23 49
e 23 50
e 23 51
e 23 52
e 23 53
e 23 54
e 23 55
e 23 56
e 23 57
e 23 58
e 23 59
e 23 60
e 23 61
e 23 62
e 23 63
e 23 64
e 23 65
e 23 66
e 23 67
e 23 68
e 23 69
e 23 70
e 23 71
e 23 72
e 23 73
e 23 74
e 23 75
e 23 76
e 23 77
e 23 78
e 23 79
e 23 80
e 23 81
e 23 82
e 23 85
e 23 87
e 23 88
e 23 89
e 23 90
e 23 100
e 24 25
e 24 26
e 24 27
e 24 28
e 24 49
e 24 50
e 24 51
e 24 52
e 24 53
e 24 54
e 24 55
e 24 56
e 24 57
e 24 58
e 24 59
e 24 60
e 24 61
e 24 62
e 24 63
e 24 64
e 24 65
e 24 66
e 24 67
e 24 68
e 24 69
e 24 70
e 24 71
e 24 72
e 24 73
e 24 74
e 24 75
e 24 76
e 24 77
e 24 78
e 24 79
e 24 80
e 24 81
e 24 82
e 24 86
e 24 87
e 24 89
e 24 90
e 25 49
e 25 50
e 25 51
e 25 52
e 25 53
e 25 54
e 25 55
e 25 56
e 25 57
e 25 58
e 25 59
e 25 60
e 25 61
e 25 62
e 25 63
e 25 64
e 25 65
e 25 66
e 25 67
e 25 68
e 25 69
e 25 70
e 25 71
e 25 72
e 25 73
e 25 74
e 25 75
e 25 76
e 25 77
e 25 78
e 25 79
e 25 80
e 25 81
e 25 82
e 25 83
e 25 89
e 25 90
e 25 100
e 26 49
e 26 50
e 26 51
e 26 52
e 26 53
e 26 54
e 26 55
e 26 56
e 26 57
e 26 58
e 26 59
e 26 60
e 26 61
e 26 62
e 26 63
e 26 64
e 26 65
e 26 66
e 26 67
e 26 68
e 26 69
e 26 70
e 26 71
e 26 72
e 26 73
e 26 74
e 26 75
e 26 76
e 26 77
e 26 78
e 26 79
e 26 80
e 26 81
e 26 82
e 26 83
e 26 86
e 26 87
e 26 88
e 26 89
e 26 90
e 26 100
e 27 49
e 27 50
e 27 51
e 27 52
e 27 53
e 27 54
e 27 55
e 27 56
e 27 57
e 27 58
e 27 59
e 27 60
e 27 61
e 27 62
e 27 63
e 27 64
e 27 65
e 27 66
e 27 67
e 27 68
e 27 69
e 27 70
e 27 71
e 27 72
e 27 73
e 27 74
e 27 75
e 27 76
e 27 77
e 27 78
e 27 79
e 27 80
e 27 81
e 27 82
e 27 83
e 27 87
e 27 89
e 27 90
e 28 49
e 28 50
e 28 51
e 28 52
e 28 53
e 28 54
e 28 55
e 28 56
e 28 57
e 28 58
e 28 59
e 28 60
e 28 61
e 28 62
e 28 63
e 28 64
e 28 65
e 28 66
e 28 67
e 28 68
e 28 69
e 28 70
e 28 71
e 28 72
e 28 73
e 28 74
e 28 75
e 28 76
e 28 77
e 28 78
e 28 79
e 28 80
e 28 81
e 28 82
e 28 83
e 28 89
e 28 90
e 29 70
e 29 79
e 29 80
e 29 81
e 29 82
e 29 83
e 29 84
e 29 85
e 29 86
e 30 54
e 30 79
e 30 80
e 30 81
e 30 82
e 30 83
e 30 84
e 30 85
e 30 86
e 32 69
e 33 48
e 33 70
e 33 95
e 34 48
e 35 48
e 35 95
e 36 48
e 36 95
e 36 99
e 37 48
e 37 95
e 38 48
e 38 95
e 39 48
e 40 48
e 42 52
e 42 70
e 42 78
e 42 80
e 42 82
e 43 80
e 43 81
e 45 78
e 45 80
e 45 81
e 46 79
e 47 69
e 48 70
e 48 76
e 48 80
e 48 81
e 49 79
e 49 80
e 49 82
e 50 72
e 50 75
e 51 77
e 52 71
e 52 76
e 52 77
e 52 79
e 52 80
e 52 81
e 53 71
e 53 81
e 53 82
e 54 55
e 54 70
e 54 71
e 54 78
e 54 79
e 54 80
e 54 81
e 54 82
e 54 83
e 54 84
e 54 85
e 54 86
e 54 87
e 54 88
e 54 89
e 54 100
e 55 70
e 55 78
e 55 79
e 55 80
e 55 81
e 55 82
e 55 83
e 55 84
e 55 85
e 55 86
e 55 87
e 55 88
e 55 89
e 55 100
e 56 71
e 56 78
e 56 79
e 56 80
e 56 81
e 56 82
e 56 83
e 56 84
e 56 85
e 56 86
e 56 87
e 56 88
e 56 89
e 56 100
e 57 78
e 57 79
e 57 80
e 57 81
e 57 82
e 57 84
e 57 85
e 57 86
e 57 87
e 57 88
e 57 89
e 57 100
e 58 78
e 58 79
e 58 80
e 58 81
e 58 82
e 58 83
e 58 84
e 58 85
e 58 86
e 58 87
e 58 88
e 58 89
e 58 100
e 59 72
e 59 78
e 59 79
e 59 80
e 59 81
e 59 82
e 59 83
e 59 84
e 59 85
e 59 86
e 59 87
e 59 88
e 59 89
e 59 100
e 60 78
e 60 79
e 60 80
e 60 81
e 60 82
e 60 89
e 60 100
e 61 78
e 61 80
e 61 81
e 61 82
e 61 89
e 61 100
e 62 78
e 62 79
e 62 80
e 62 81
e 62 82
e 62 89
e 62 100
e 63 78
e 63 79
e 63 80
e 63 81
e 63 82
e 63 89
e 63 100
e 64 78
e 64 79
e 64 80
e 64 81
e 64 82
e 64 89
e 64 100
e 65 78
e 65 79
e 65 80
e 65 81
e 65 82
e 65 100
e 66 72
e 66 78
e 66 79
e 66 80
e 66 81
e 66 82
e 66 100
e 67 78
e 67 79
e 67 81
e 67 82
e 67 89
e 67 90
e 67 91
e 67 92
e 67 93
e 67 94
e 67 95
e 67 96
e 67 97
e 67 98
e 67 99
e 67 100
e 68 80
e 68 81
e 68 82
e 68 89
e 68 90
e 68 91
e 68 92
e 68 93
e 68 94
e 68 95
e 68 96
e 68 98
e 68 99
e 68 100
e 69 80
e 69 81
e 69 82
e 69 89
e 69 90
e 69 91
e 69 92
e 69 93
e 69 94
e 69 95
e 69 96
e 69 97
e 69 98
e 69 99
e 69 100
e 70 79
e 70 81
e 70 82
e 70 90
e 70 91
e 70 92
e 70 93
e 70 94
e 70 95
e 70 96
e 70 97
e 70 98
e 70 99
e 70 100
e 71 80
e 71 81
e 71 82
e 71 89
e 71 90
e 71 91
e 71 92
e 71 93
e 71 94
e 71 95
e 71 96
e 71 97
e 71 98
e 71 99
e 71 100
e 72 78
e 72 79
e 72 80
e 72 81
e 72 89
e 72 90
e 72 91
e 72 92
e 72 93
e 72 94
e 72 95
e 72 96
e 72 97
e 72 98
e 72 99
e 72 100
e 73 78
e 73 79
e 73 80
e 73 81
e 73 82
e 73 89
e 73 90
e 73 91
e 73 92
e 73 93
e 73 94
e 73 95
e 73 96
e 73 97
e 73 98
e 73 99
e 73 100
e 74 78
e 74 79
e 74 80
e 74 81
e 74 82
e 74 89
e 74 90
e 74 91
e 74 92
e 74 93
e 74 94
e 74 95
e 74 96
e 74 97
e 74 98
e 74 99
e 74 100
e 75 78
e 75 79
e 75 80
e 75 81
e 75 82
e 75 89
e 75 90
e 75 91
e 75 92
e 75 93
e 75 94
e 75 95
e 75 96
e 75 98
e 75 99
e 75 100
e 76 78
e 76 79
e 76 80
e 76 81
e 76 82
e 76 89
e 76 90
e 76 91
e 76 92
e 76 93
e 76 94
e 76 95
e 76 96
e 76 97
e 76 98
e 76 99
e 76 100
e 77 78
e 77 79
e 77 80
e 77 81
e 77 82
e 77 89
e 77 90
e 77 91
e 77 92
e 77 93
e 77 94
e 77 95
e 77 96
e 77 97
e 77 98
e 77 99
e 77 100
e 78 89
e 78 90
e 78 91
e 78 92
e 78 93
e 78 94
e 78 95
e 78 96
e 78 97
e 78 98
e 78 99
e 78 100
e 79 89
e 79 90
e 79 91
e 79 92
e 79 93
e 79 94
e 79 95
e 79 96
e 79 97
e 79 98
e 79 99
e 79 100
e 80 89
e 80 90
e 80 91
e 80 92
e 80 93
e 80 94
e 80 95
e 80 96
e 80 97
e 80 98
e 80 99
e 80 100
e 81 89
e 81 90
e 81 91
e 81 92
e 81 93
e 81 94
e 81 95
e 81 96
e 81 97
e 81 98
e 81 99
e 81 100
e 82 92
e 82 93
e 82 94
e 82 95
e 82 96
e 82 97
e 82 98
e 82 100
e 83 88
e 83 91
e 83 94
e 83 96
e 83 99
e 83 100
e 85 96
e 86 94
e 86 99
e 87 100
e 89 91
e 91 96
